RT is False
Default write of storage_offers_DA.csv just to have a file (but constraint should be inactive)
Reading model...
...model read.
creating competitive generators file...
...competitive generators recorded.
Loading data...
.. day-ahead data read.
Compiling instance...
...instance created.
Creating Offer Mitigation (model will solve as dispatch if TRUE)...
NOTE: storage offers will not be mitigated
...storage offer mitigation file created
Converting model to MPEC...
...converted
NOTE: initial MIP solve with only storage competitive to get feasible solution
Solving...

Welcome to IBM(R) ILOG(R) CPLEX(R) Interactive Optimizer 12.9.0.0
  with Simplex, Mixed Integer & Barrier Optimizers
5725-A06 5725-A29 5724-Y48 5724-Y49 5724-Y54 5724-Y55 5655-Y21
Copyright IBM Corp. 1988, 2019.  All Rights Reserved.

Type 'help' for a list of available commands.
Type 'help' followed by a command name for more
information on commands.

CPLEX> Logfile 'cplex.log' closed.
Logfile 'C:\Users\Luke\Desktop\test919\logs\tmpvjo5rtqp.cplex.log' open.
CPLEX> New value for parallel optimization mode: -1
CPLEX> New value for mixed integer optimality gap tolerance: 0.01
CPLEX> New value for integrality tolerance: 1e-09
CPLEX> New value for feasibility tolerance: 0.01
CPLEX> New value for deterministic time limit in ticks: 75000
CPLEX> Problem 'C:\Users\Luke\Desktop\test919\logs\tmp8rgegxnd.pyomo.lp' read.
Read time = 0.20 sec. (14.73 ticks)
CPLEX> Problem name         : C:\Users\Luke\Desktop\test919\logs\tmp8rgegxnd.pyomo.lp
Objective sense      : Maximize
Variables            :   53805  [Nneg: 1,  Box: 22000,  Free: 4464,
                                 Binary: 27340]
Objective nonzeros   :    9076
Linear constraints   :  123205  [Less: 41346,  Greater: 59096,  Equal: 22763]
  Nonzeros           :  291897
  RHS nonzeros       :   67587

Variables            : Min LB: -5000.000        Max UB: 1000000.       
Objective nonzeros   : Min   : 0.1000000        Max   : 722.0000       
Linear constraints   :
  Nonzeros           : Min   : 0.1000000        Max   : 1000000.       
  RHS nonzeros       : Min   : 0.1000000        Max   : 1000000.       
CPLEX> CPXPARAM_Parallel                                -1
CPXPARAM_Simplex_Tolerances_Feasibility          0.01
CPXPARAM_DetTimeLimit                            75000
CPXPARAM_MIP_Tolerances_MIPGap                   0.01
CPXPARAM_MIP_Tolerances_Integrality              1.0000000000000001e-09
Tried aggregator 3 times.
MIP Presolve eliminated 88157 rows and 18535 columns.
MIP Presolve added 3494 rows and 0 columns.
MIP Presolve modified 25088 coefficients.
Aggregator did 13000 substitutions.
Reduced MIP has 25542 rows, 21792 columns, and 72701 nonzeros.
Reduced MIP has 8606 binaries, 0 generals, 0 SOSs, and 0 indicators.
Presolve time = 0.27 sec. (174.06 ticks)
Probing fixed 372 vars, tightened 2878 bounds.
Probing time = 1.38 sec. (901.01 ticks)
Tried aggregator 2 times.
MIP Presolve eliminated 835 rows and 744 columns.
MIP Presolve modified 2288 coefficients.
Aggregator did 41 substitutions.
Reduced MIP has 24666 rows, 21007 columns, and 70164 nonzeros.
Reduced MIP has 8234 binaries, 0 generals, 0 SOSs, and 0 indicators.
Presolve time = 0.09 sec. (74.12 ticks)
Probing time = 0.03 sec. (16.63 ticks)
Clique table members: 6446.
MIP emphasis: balance optimality and feasibility.
MIP search method: dynamic search.
Parallel mode: opportunistic, using up to 24 threads.
Root relaxation solution time = 0.52 sec. (358.72 ticks)

        Nodes                                         Cuts/
   Node  Left     Objective  IInf  Best Integer    Best Bound    ItCnt     Gap

      0     0     2940.4971  2120                   2940.4971     7779         
      0     0     2940.4971    16                    Cuts: 17     7787         
      0     0     2940.4971    13                    Cuts: 20     7793         
      0     0     2940.4971    13                     Cuts: 5     7793         
      0    14    infeasible                       Impl Bds: 1     7983         
Elapsed time = 8.56 sec. (5478.38 ticks, tree = 0.02 MB, solutions = 0)
    432    88   -15164.8215     7                   2936.3937     8834         
    814   380     -156.0757     1                   2936.3937    30295         
   1197   496    -3924.7868     5                   2936.3937    35914         
   1547   680    -1733.4908     3                   2936.3937    43108         
*  1802+  715                        -3588.7926     2936.3937           181.82%
*  2020   959      integral     0     -643.1486     2936.3937    51279  556.57%
*  2122  1010      integral     0     -548.4589     2936.3937    51990  635.39%
*  2309   726      integral     0     2936.3937     2936.3937    55662    0.00%
   2543   420        cutoff           2936.3937     2936.3937    59848    0.00%

Implied bound cuts applied:  8
Flow cuts applied:  15
Mixed integer rounding cuts applied:  2
Gomory fractional cuts applied:  5

Root node processing (before b&c):
  Real time             =    8.11 sec. (5460.00 ticks)
Parallel b&c, 24 threads:
  Real time             =    4.47 sec. (1710.85 ticks)
  Sync time (average)   =    0.26 sec.
  Wait time (average)   =    0.00 sec.
                          ------------
Total (root+branch&cut) =   12.58 sec. (7170.84 ticks)

Solution pool: 5 solutions saved.

MIP - Integer optimal solution:  Objective =  2.9363937087e+03
Solution time =   12.61 sec.  Iterations = 63075  Nodes = 2555
Deterministic time = 7171.00 ticks  (568.72 ticks/sec)

CPLEX> Incumbent solution written to file 'C:\Users\Luke\Desktop\test919\logs\tmpv92qhqfv.cplex.sol'.
CPLEX> NOTE: no warmstart specified for MIP iteration, default behavior is true
NOTE: resolving with all competitive generators using storage-only solution to warmstart
Solving...

Welcome to IBM(R) ILOG(R) CPLEX(R) Interactive Optimizer 12.9.0.0
  with Simplex, Mixed Integer & Barrier Optimizers
5725-A06 5725-A29 5724-Y48 5724-Y49 5724-Y54 5724-Y55 5655-Y21
Copyright IBM Corp. 1988, 2019.  All Rights Reserved.

Type 'help' for a list of available commands.
Type 'help' followed by a command name for more
information on commands.

CPLEX> Logfile 'cplex.log' closed.
Logfile 'C:\Users\Luke\Desktop\test919\logs\tmp681gfle7.cplex.log' open.
CPLEX> New value for parallel optimization mode: -1
CPLEX> New value for mixed integer optimality gap tolerance: 0.01
CPLEX> New value for integrality tolerance: 1e-09
CPLEX> New value for feasibility tolerance: 0.01
CPLEX> New value for deterministic time limit in ticks: 75000
CPLEX> Problem 'C:\Users\Luke\Desktop\test919\logs\tmpvq8u_6_4.pyomo.lp' read.
Read time = 0.20 sec. (14.75 ticks)
CPLEX> MIP start file 'C:\Users\Luke\Desktop\test919\logs\tmp_4_k1584.cplex.mst' read.
CPLEX> Problem name         : C:\Users\Luke\Desktop\test919\logs\tmpvq8u_6_4.pyomo.lp
Objective sense      : Maximize
Variables            :   54525  [Nneg: 1,  Box: 22720,  Free: 4464,
                                 Binary: 27340]
Objective nonzeros   :    9796
Linear constraints   :  123205  [Less: 41346,  Greater: 59096,  Equal: 22763]
  Nonzeros           :  291897
  RHS nonzeros       :   67587

Variables            : Min LB: -5000.000        Max UB: 1000000.       
Objective nonzeros   : Min   : 0.1000000        Max   : 722.0000       
Linear constraints   :
  Nonzeros           : Min   : 0.1000000        Max   : 1000000.       
  RHS nonzeros       : Min   : 0.1000000        Max   : 1000000.       
CPLEX> CPXPARAM_Parallel                                -1
CPXPARAM_Simplex_Tolerances_Feasibility          0.01
CPXPARAM_DetTimeLimit                            75000
CPXPARAM_MIP_Tolerances_MIPGap                   0.01
CPXPARAM_MIP_Tolerances_Integrality              1.0000000000000001e-09
Warning:  No solution found from 1 MIP starts.
Retaining values of one MIP start for possible repair.
Tried aggregator 3 times.
MIP Presolve eliminated 88157 rows and 19255 columns.
MIP Presolve added 3494 rows and 0 columns.
MIP Presolve modified 25088 coefficients.
Aggregator did 13000 substitutions.
Reduced MIP has 25542 rows, 21792 columns, and 72701 nonzeros.
Reduced MIP has 8606 binaries, 0 generals, 0 SOSs, and 0 indicators.
Presolve time = 0.25 sec. (174.42 ticks)
Probing fixed 372 vars, tightened 2878 bounds.
Probing time = 1.36 sec. (901.01 ticks)
Tried aggregator 2 times.
MIP Presolve eliminated 835 rows and 744 columns.
MIP Presolve modified 2288 coefficients.
Aggregator did 41 substitutions.
Reduced MIP has 24666 rows, 21007 columns, and 70164 nonzeros.
Reduced MIP has 8234 binaries, 0 generals, 0 SOSs, and 0 indicators.
Presolve time = 0.11 sec. (74.12 ticks)
Probing time = 0.02 sec. (16.63 ticks)
Clique table members: 6446.
MIP emphasis: balance optimality and feasibility.
MIP search method: dynamic search.
Parallel mode: opportunistic, using up to 24 threads.
Root relaxation solution time = 0.56 sec. (358.72 ticks)

        Nodes                                         Cuts/
   Node  Left     Objective  IInf  Best Integer    Best Bound    ItCnt     Gap

      0     0     2940.4971  2120                   2940.4971     7779         
      0     0     2940.4971    16                    Cuts: 17     7787         
      0     0     2940.4971    13                    Cuts: 20     7793         
      0     0     2940.4971    13                     Cuts: 5     7793         
*     0+    0                         2890.3224     2940.4971             1.74%
Repair heuristic succeeded.

Repeating presolve.
Tried aggregator 3 times.
MIP Presolve eliminated 13025 rows and 9952 columns.
MIP Presolve modified 28698 coefficients.
Aggregator did 337 substitutions.
Reduced MIP has 11304 rows, 10718 columns, and 34970 nonzeros.
Reduced MIP has 3876 binaries, 0 generals, 0 SOSs, and 0 indicators.
Presolve time = 0.13 sec. (81.92 ticks)
Probing fixed 826 vars, tightened 35768 bounds.
Probing time = 0.09 sec. (64.33 ticks)
Cover probing fixed 8 vars, tightened 2136 bounds.
Tried aggregator 4 times.
MIP Presolve eliminated 6228 rows and 6041 columns.
MIP Presolve modified 2427 coefficients.
Aggregator did 121 substitutions.
Reduced MIP has 4955 rows, 4556 columns, and 17410 nonzeros.
Reduced MIP has 1577 binaries, 0 generals, 0 SOSs, and 0 indicators.
Presolve time = 0.05 sec. (27.10 ticks)
Probing fixed 42 vars, tightened 3030 bounds.
Probing time = 0.02 sec. (12.22 ticks)
Cover probing fixed 4 vars, tightened 189 bounds.
Tried aggregator 2 times.
MIP Presolve eliminated 169 rows and 147 columns.
MIP Presolve modified 597 coefficients.
Aggregator did 3 substitutions.
Reduced MIP has 4783 rows, 4406 columns, and 16917 nonzeros.
Reduced MIP has 1511 binaries, 0 generals, 0 SOSs, and 0 indicators.
Presolve time = 0.00 sec. (8.51 ticks)
Probing fixed 9 vars, tightened 1554 bounds.
Probing time = 0.00 sec. (7.68 ticks)
Tried aggregator 2 times.
MIP Presolve eliminated 70 rows and 63 columns.
MIP Presolve modified 423 coefficients.
Aggregator did 2 substitutions.
Reduced MIP has 4711 rows, 4341 columns, and 16694 nonzeros.
Reduced MIP has 1490 binaries, 0 generals, 0 SOSs, and 0 indicators.
Presolve time = 0.02 sec. (12.89 ticks)
Represolve time = 0.44 sec. (284.14 ticks)
Probing fixed 23 vars, tightened 1162 bounds.
Probing time = 0.02 sec. (5.76 ticks)
Clique table members: 2381.
MIP emphasis: balance optimality and feasibility.
MIP search method: dynamic search.
Parallel mode: opportunistic, using up to 24 threads.
Root relaxation solution time = 0.06 sec. (61.91 ticks)

        Nodes                                         Cuts/
   Node  Left     Objective  IInf  Best Integer    Best Bound    ItCnt     Gap

*     0+    0                         2890.3224     2940.4971             1.74%
      0     0     2940.4971    26     2890.3224     2940.4971    10032    1.74%
      0     0     2940.4971     1     2890.3224      Fract: 1    10033    1.74%
*     0+    0                         2936.3937     2940.4971             0.14%

Flow cuts applied:  1

Root node processing (before b&c):
  Real time             =    9.20 sec. (6081.98 ticks)
Parallel b&c, 24 threads:
  Real time             =    0.00 sec. (0.00 ticks)
  Sync time (average)   =    0.00 sec.
  Wait time (average)   =    0.00 sec.
                          ------------
Total (root+branch&cut) =    9.20 sec. (6081.98 ticks)

Solution pool: 2 solutions saved.

MIP - Integer optimal, tolerance (0.01/1e-06):  Objective =  2.9363937087e+03
Current MIP best bound =  2.9404971044e+03 (gap = 4.1034, 0.14%)
Solution time =    9.20 sec.  Iterations = 10033  Nodes = 0 (1)
Deterministic time = 6082.14 ticks  (660.89 ticks/sec)

CPLEX> Incumbent solution written to file 'C:\Users\Luke\Desktop\test919\logs\tmpugem8jv7.cplex.sol'.
CPLEX> Exporting results... 
